c This Formula is simple
c
c    horn? no 
c    forced? no 
c    mixed sat? no 
c    clause length = 3 
c    ¬1∨2, ¬2，¬3∨4, 3∨¬5,3∨4, 3∨5，¬2∨¬5∨6
c
p cnf 6 7
-1 2 0
-2 0
-3 4 0
3 -5 0
3 4 0
3 5 0
-2 -5 6 0
